c description: Random 3-CNF over 19 variables and 81 clauses
c generator: CNFgen (0.9.2)
c copyright: (C) 2012-2022 Massimo Lauria <massimo.lauria@uniroma1.it>
c url: https://massimolauria.net/cnfgen
c command line: cnfgen --output CNF_4.28/19_bit_81_412.cnf randkcnf 3 19 81
c
p cnf 19 81
2 -9 12 0
5 6 -8 0
3 7 -17 0
2 5 -9 0
1 -16 18 0
-8 -13 16 0
-10 12 -19 0
2 6 10 0
17 -18 -19 0
-12 18 -19 0
-8 -18 -19 0
3 13 14 0
4 -7 -19 0
3 -9 -19 0
10 -11 -19 0
1 -7 11 0
10 -13 -17 0
-4 13 -14 0
4 5 -14 0
11 -18 19 0
-6 -17 -18 0
6 8 -18 0
-4 7 15 0
-1 -16 -18 0
-4 -12 -17 0
-3 -6 -14 0
5 -11 -16 0
-9 14 15 0
-1 14 19 0
-1 -10 13 0
3 16 18 0
2 -5 6 0
8 -17 -19 0
14 16 -17 0
-2 7 9 0
3 -6 15 0
4 11 -19 0
-8 -9 10 0
12 17 -19 0
4 5 -18 0
-1 5 -6 0
6 8 -14 0
-11 -14 -18 0
-1 -8 17 0
1 11 -12 0
7 16 18 0
-8 11 -19 0
-8 10 -12 0
4 18 -19 0
-11 13 14 0
6 13 -19 0
-6 -11 14 0
4 -10 -18 0
-4 -11 -19 0
-6 -7 -19 0
6 13 17 0
-7 -14 17 0
5 -13 -18 0
1 -2 -14 0
3 -8 18 0
-1 5 16 0
5 10 18 0
-3 -13 -16 0
-3 -13 -19 0
-4 -13 -16 0
2 8 -11 0
-6 11 -18 0
-1 13 -18 0
12 -15 17 0
14 -15 -18 0
2 12 19 0
-7 14 -15 0
-5 -11 14 0
-2 -14 17 0
7 -9 12 0
3 8 14 0
3 11 18 0
8 15 -16 0
-4 8 -10 0
3 -7 18 0
1 7 15 0
